9,6	0,0	10,6	18,2	0,0	0,0	0,0	0,0	0,0	19,2
7,6	11,1	0,0	11,5	10,9	0,0	0,0	18,2	0,0	0,0
0,0	0,0	13,7	0,0	9,0	8,2	0,0	0,0	8,9	0,0
13,8	0,0	9,9	0,0	0,0	0,0	13,6	0,0	0,0	0,0
0,0	19,7	0,0	10,0	10,2	0,0	0,0	8,1	0,0	0,0
0,0	8,7	19,4	0,0	11,4	15,1	0,0	0,0	15,4	0,0
0,0	9,6	0,0	17,9	0,0	0,0	16,3	0,0	0,0	18,5
19,0	0,0	19,0	0,0	0,0	0,0	0,0	0,0	0,0	9,4
0,0	17,1	0,0	18,6	12,3	0,0	0,0	12,1	0,0	0,0
0,0	0,0	9,5	0,0	0,0	6,1	19,2	0,0	0,0	18,9
									
4,3	4,6	4,5	4,7	2,8	3,2	2,6	3,6	3,8	4,9
